language ESSENCE' 1.0

letting jobs = 32
letting horizon = 224
letting resourcesRenew = 2
letting resourcesNonrenew = 2
letting resourceLimits = [12, 16, 101, 71]
letting successors = [[2, 3, 4], [7, 12, 19], [5, 6], [9, 11, 24], [16], [8, 15], [16, 20, 24], [10, 12], [14, 15, 30], [11, 17], [18], [13, 28], [18, 20, 31], [17, 26], [16, 17, 23], [27], [27], [21], [20], [25, 26], [22, 25], [23, 30], [26], [25, 27, 28], [30], [29], [29, 31], [29, 31], [32], [32], [32], []]
letting durations = [[0], [6, 8, 10], [2, 2, 9], [5, 8, 10], [1, 3, 4], [2, 6, 7], [1, 2, 6], [5, 6, 8], [3, 4, 7], [1, 2, 3], [8, 9, 9], [3, 3, 4], [3, 8, 8], [2, 5, 8], [2, 6, 8], [1, 4, 6], [2, 6, 9], [1, 4, 10], [5, 6, 8], [2, 8, 9], [1, 2, 9], [2, 4, 9], [3, 4, 7], [5, 6, 9], [1, 5, 6], [1, 2, 2], [1, 1, 5], [5, 6, 9], [1, 3, 7], [7, 8, 8], [7, 10, 10], [0]]
letting resourceUsage = [[[0, 0, 0, 0]], [[9, 0, 9, 0], [8, 0, 9, 0], [0, 3, 8, 0]], [[5, 0, 0, 9], [4, 0, 5, 0], [3, 0, 0, 9]], [[0, 3, 0, 5], [0, 2, 0, 5], [0, 1, 9, 0]], [[0, 4, 9, 0], [7, 0, 7, 0], [0, 4, 6, 0]], [[9, 0, 0, 5], [7, 0, 7, 0], [0, 2, 4, 0]], [[0, 4, 7, 0], [7, 0, 0, 1], [4, 0, 4, 0]], [[6, 0, 0, 3], [0, 3, 0, 3], [3, 0, 0, 3]], [[0, 10, 8, 0], [0, 9, 0, 10], [0, 9, 5, 0]], [[0, 9, 9, 0], [0, 2, 7, 0], [7, 0, 3, 0]], [[3, 0, 8, 0], [2, 0, 0, 10], [0, 5, 7, 0]], [[10, 0, 3, 0], [0, 2, 3, 0], [8, 0, 3, 0]], [[0, 9, 0, 4], [0, 8, 7, 0], [4, 0, 0, 3]], [[10, 0, 0, 8], [0, 7, 6, 0], [5, 0, 0, 5]], [[2, 0, 3, 0], [0, 6, 2, 0], [1, 0, 0, 4]], [[0, 9, 6, 0], [8, 0, 6, 0], [7, 0, 0, 4]], [[6, 0, 0, 6], [2, 0, 3, 0], [0, 3, 1, 0]], [[0, 7, 8, 0], [0, 6, 7, 0], [5, 0, 7, 0]], [[10, 0, 0, 3], [0, 8, 0, 2], [5, 0, 9, 0]], [[7, 0, 0, 4], [0, 2, 2, 0], [6, 0, 1, 0]], [[0, 6, 6, 0], [0, 4, 5, 0], [2, 0, 0, 7]], [[5, 0, 0, 1], [3, 0, 7, 0], [3, 0, 6, 0]], [[6, 0, 7, 0], [0, 9, 6, 0], [0, 6, 4, 0]], [[0, 9, 0, 8], [0, 9, 0, 7], [0, 8, 0, 3]], [[3, 0, 0, 2], [0, 2, 0, 2], [2, 0, 2, 0]], [[9, 0, 0, 9], [7, 0, 4, 0], [0, 2, 0, 9]], [[7, 0, 7, 0], [0, 5, 0, 9], [8, 0, 5, 0]], [[6, 0, 0, 6], [0, 6, 8, 0], [0, 3, 8, 0]], [[5, 0, 0, 8], [0, 3, 2, 0], [0, 3, 0, 4]], [[0, 8, 0, 8], [0, 4, 0, 8], [0, 4, 7, 0]], [[2, 0, 0, 2], [2, 0, 0, 1], [2, 0, 2, 0]], [[0, 0, 0, 0]]]
